nj = 5;
nm = 4;
pidle =  [1 2 3 1];
Ops =  {<1 1 4 11 0 5 4> <1 2 1 10 0 4 5>
     <1 3 2 7 1 1 3>
     <2 1 3 12 0 5 4>
     <2 2 2 10 0 3 3>
     <2 3 4 8 1 2 3>
     <3 1 2 7 0 5 5>
     <3 2 3 10 0 2 4>
     <3 3 1 9 0 3 4>
     <3 4 3 8 1 1 4>
     <4 1 2 7 0 5 3>
     <4 2 4 8 0 2 5>
     <4 3 1 12 0 4 5>
     <4 4 2 6 1 1 5>
     <5 1 1 9 0 5 3>
     <5 2 2 7 0 1 4>
     <5 3 4 8 0 2 3>
     <5 4 2 10 0 4 3>
     <5 5 3 8 1 2 3>};
